c User generated cnf file
p cnf 9 42
-1 5 6 0 
5 -1 7 0 
8 1 -3 0 
-2 3 6 0 
4 -9 5 0 
8 6 -6 0 
-3 3 1 0 
1 -7 2 0 
3 1 -1 0 
4 -7 3 0 
3 -1 1 0 
-7 2 5 0 
2 -1 3 0 
5 5 -5 0 
1 7 -5 0 
9 5 -5 0 
7 2 -8 0 
9 7 -6 0 
7 -2 4 0 
-4 7 9 0 
6 3 -2 0 
8 -4 7 0 
-3 3 9 0 
6 3 -4 0 
-3 4 3 0 
8 2 -9 0 
-5 8 3 0 
6 7 -3 0 
6 -5 9 0 
1 3 -2 0 
5 2 -2 0 
-6 9 9 0 
-1 9 7 0 
-9 4 3 0 
1 -7 8 0 
4 6 -3 0 
-1 8 4 0 
3 -8 1 0 
5 7 -6 0 
-1 6 9 0 
7 -9 2 0 
1 6 -1 0 
